NAME:  test1
TYPE: AGTSP
COMMENT: gtsp tours
DIMENSION:  57
GTSP_SETS: 15
EDGE_WEIGHT_TYPE: EXPLICIT
EDGE_WEIGHT_FORMAT: FULL_MATRIX 
EDGE_WEIGHT_SECTION
999999	0	999999	999999	28145	28145	28137	999999	28146	28146	28138	999999	28160	28160	28160	28152	28143	28143	28135	999999	28165	28165	28165	28157	28152	28152	28152	28144	28134	28134	28126	999999	28155	28155	28155	28147	28150	28150	28142	999999	28160	28160	28160	28152	28152	28152	28152	28144	28155	28155	28155	28147	28155	28155	28155	28147	0
999999	999999	0	999999	28145	28145	28145	28137	28146	28146	28146	28138	28160	28160	28160	999999	28143	28143	28143	28135	28165	28165	28165	999999	28152	28152	28152	999999	28134	28134	28134	28126	28155	28155	28155	999999	28150	28150	28150	28142	28160	28160	28160	999999	28152	28152	28152	999999	28155	28155	28155	999999	28155	28155	28155	999999	0
999999	999999	999999	0	28145	28145	28145	28145	28146	28146	28146	28146	28160	28160	28160	28160	28143	28143	28143	28143	28165	28165	28165	28165	28152	28152	28152	28152	28134	28134	28134	28134	28155	28155	28155	28155	28150	28150	28150	28150	28160	28160	28160	28160	28152	28152	28152	28152	28155	28155	28155	28155	28155	28155	28155	28155	0
0	999999	999999	999999	28145	28137	999999	999999	28146	28138	999999	999999	28160	28160	28152	999999	28143	28135	999999	999999	28165	28165	28157	999999	28152	28152	28144	999999	28134	28126	999999	999999	28155	28155	28147	999999	28150	28142	999999	999999	28160	28160	28152	999999	28152	28152	28144	999999	28155	28155	28147	999999	28155	28155	28147	999999	0
28145	28145	28137	999999	999999	0	999999	999999	28159	28159	28159	28151	28155	28155	28155	28147	28160	28160	28160	28152	28154	28154	28154	28146	28149	28149	28141	999999	28149	28149	28141	999999	28140	28140	28132	999999	28144	28144	28136	999999	28168	28168	28168	28160	28138	28138	28130	999999	28171	28171	999999	999999	28171	28171	999999	999999	0
28145	28145	28145	28137	999999	999999	0	999999	28159	28159	28159	999999	28155	28155	28155	999999	28160	28160	28160	999999	28154	28154	28154	999999	28149	28149	28149	28141	28149	28149	28149	28141	28140	28140	28140	28132	28144	28144	28144	28136	28168	28168	28168	999999	28138	28138	28138	28130	28171	28171	28171	999999	28171	28171	28171	999999	0
28145	28145	28145	28145	999999	999999	999999	0	28159	28159	28159	28159	28155	28155	28155	28155	28160	28160	28160	28160	28154	28154	28154	28154	28149	28149	28149	28149	28149	28149	28149	28149	28140	28140	28140	28140	28144	28144	28144	28144	28168	28168	28168	28168	28138	28138	28138	28138	28171	28171	28171	28171	28171	28171	28171	28171	0
28145	28137	999999	999999	0	999999	999999	999999	28159	28159	28151	999999	28155	28155	28147	999999	28160	28160	28152	999999	28154	28154	28146	999999	28149	28141	999999	999999	28149	28141	999999	999999	28140	28132	999999	999999	28144	28136	999999	999999	28168	28168	28160	999999	28138	28130	999999	999999	28171	28171	28171	28163	28171	28171	28171	28163	0
28146	28146	28138	999999	28159	28159	28159	28151	999999	0	999999	999999	28160	28160	28160	28152	28139	28139	28131	999999	28182	28182	999999	999999	28153	28153	28153	28145	28148	28148	28140	999999	28170	28170	28170	28162	28167	28167	28167	28159	28146	28146	28138	999999	28163	28163	28163	28155	28153	28153	28153	28145	28156	28156	28156	28148	0
28146	28146	28146	28138	28159	28159	28159	999999	999999	999999	0	999999	28160	28160	28160	999999	28139	28139	28139	28131	28182	28182	28182	999999	28153	28153	28153	999999	28148	28148	28148	28140	28170	28170	28170	999999	28167	28167	28167	999999	28146	28146	28146	28138	28163	28163	28163	999999	28153	28153	28153	999999	28156	28156	28156	999999	0
28146	28146	28146	28146	28159	28159	28159	28159	999999	999999	999999	0	28160	28160	28160	28160	28139	28139	28139	28139	28182	28182	28182	28182	28153	28153	28153	28153	28148	28148	28148	28148	28170	28170	28170	28170	28167	28167	28167	28167	28146	28146	28146	28146	28163	28163	28163	28163	28153	28153	28153	28153	28156	28156	28156	28156	0
28146	28138	999999	999999	28159	28159	28151	999999	0	999999	999999	999999	28160	28160	28152	999999	28139	28131	999999	999999	28182	28182	28182	28174	28153	28153	28145	999999	28148	28140	999999	999999	28170	28170	28162	999999	28167	28167	28159	999999	28146	28138	999999	999999	28163	28163	28155	999999	28153	28153	28145	999999	28156	28156	28148	999999	0
28160	28160	28160	28152	28155	28155	28155	28147	28160	28160	28160	28152	999999	0	999999	999999	28168	28168	28168	28160	28179	28179	999999	999999	28137	28137	28129	999999	28165	28165	28165	28157	28164	28164	28164	28156	28170	28170	28170	28162	28155	28155	28155	28147	28148	28148	28140	999999	28183	28183	999999	999999	28185	28185	999999	999999	0
28160	28160	28160	999999	28155	28155	28155	999999	28160	28160	28160	999999	999999	999999	0	999999	28168	28168	28168	999999	28179	28179	28179	999999	28137	28137	28137	28129	28165	28165	28165	999999	28164	28164	28164	999999	28170	28170	28170	999999	28155	28155	28155	999999	28148	28148	28148	28140	28183	28183	28183	999999	28185	28185	28185	999999	0
28160	28160	28160	28160	28155	28155	28155	28155	28160	28160	28160	28160	999999	999999	999999	0	28168	28168	28168	28168	28179	28179	28179	28179	28137	28137	28137	28137	28165	28165	28165	28165	28164	28164	28164	28164	28170	28170	28170	28170	28155	28155	28155	28155	28148	28148	28148	28148	28183	28183	28183	28183	28185	28185	28185	28185	0
28160	28160	28152	999999	28155	28155	28147	999999	28160	28160	28152	999999	0	999999	999999	999999	28168	28168	28160	999999	28179	28179	28179	28171	28137	28129	999999	999999	28165	28165	28157	999999	28164	28164	28156	999999	28170	28170	28162	999999	28155	28155	28147	999999	28148	28140	999999	999999	28183	28183	28183	28175	28185	28185	28185	28177	0
28143	28143	28135	999999	28160	28160	28160	28152	28139	28139	28131	999999	28168	28168	28168	28160	999999	0	999999	999999	28179	28179	999999	999999	28160	28160	28160	28152	28142	28142	28134	999999	28169	28169	28169	28161	28163	28163	28163	28155	28156	28156	28156	28148	28166	28166	28166	28158	28143	28143	28135	999999	28146	28146	28138	999999	0
28143	28143	28143	28135	28160	28160	28160	999999	28139	28139	28139	28131	28168	28168	28168	999999	999999	999999	0	999999	28179	28179	28179	999999	28160	28160	28160	999999	28142	28142	28142	28134	28169	28169	28169	999999	28163	28163	28163	999999	28156	28156	28156	999999	28166	28166	28166	999999	28143	28143	28143	28135	28146	28146	28146	28138	0
28143	28143	28143	28143	28160	28160	28160	28160	28139	28139	28139	28139	28168	28168	28168	28168	999999	999999	999999	0	28179	28179	28179	28179	28160	28160	28160	28160	28142	28142	28142	28142	28169	28169	28169	28169	28163	28163	28163	28163	28156	28156	28156	28156	28166	28166	28166	28166	28143	28143	28143	28143	28146	28146	28146	28146	0
28143	28135	999999	999999	28160	28160	28152	999999	28139	28131	999999	999999	28168	28168	28160	999999	0	999999	999999	999999	28179	28179	28179	28171	28160	28160	28152	999999	28142	28134	999999	999999	28169	28169	28161	999999	28163	28163	28155	999999	28156	28156	28148	999999	28166	28166	28158	999999	28143	28135	999999	999999	28146	28138	999999	999999	0
28165	28165	28165	28157	28154	28154	28154	28146	28182	28182	999999	999999	28179	28179	999999	999999	28179	28179	999999	999999	999999	0	999999	999999	28173	28173	999999	999999	28166	28166	28166	28158	28143	28143	28135	999999	28145	28145	28137	999999	28193	28193	999999	999999	28159	28159	28159	28151	28185	28185	999999	999999	28184	28184	999999	999999	0
28165	28165	28165	999999	28154	28154	28154	999999	28182	28182	28182	999999	28179	28179	28179	999999	28179	28179	28179	999999	999999	999999	0	999999	28173	28173	28173	999999	28166	28166	28166	999999	28143	28143	28143	28135	28145	28145	28145	28137	28193	28193	28193	999999	28159	28159	28159	999999	28185	28185	28185	999999	28184	28184	28184	999999	0
28165	28165	28165	28165	28154	28154	28154	28154	28182	28182	28182	28182	28179	28179	28179	28179	28179	28179	28179	28179	999999	999999	999999	0	28173	28173	28173	28173	28166	28166	28166	28166	28143	28143	28143	28143	28145	28145	28145	28145	28193	28193	28193	28193	28159	28159	28159	28159	28185	28185	28185	28185	28184	28184	28184	28184	0
28165	28165	28157	999999	28154	28154	28146	999999	28182	28182	28182	28174	28179	28179	28179	28171	28179	28179	28179	28171	0	999999	999999	999999	28173	28173	28173	28165	28166	28166	28158	999999	28143	28135	999999	999999	28145	28137	999999	999999	28193	999999	999999	999999	28159	28159	28151	999999	28185	28185	28185	28177	28184	28184	28184	28176	0
28152	28152	28152	28144	28149	28149	28141	999999	28153	28153	28153	28145	28137	28137	28129	999999	28160	28160	28160	28152	28173	28173	999999	999999	999999	0	999999	999999	28157	28157	28157	28149	28159	28159	28159	28151	28163	28163	28163	28155	28152	28152	28152	28144	28144	28144	28136	999999	28175	28175	999999	999999	28176	28176	999999	999999	0
28152	28152	28152	999999	28149	28149	28149	28141	28153	28153	28153	999999	28137	28137	28137	28129	28160	28160	28160	999999	28173	28173	28173	999999	999999	999999	0	999999	28157	28157	28157	999999	28159	28159	28159	999999	28163	28163	28163	999999	28152	28152	28152	999999	28144	28144	28144	28136	28175	28175	28175	999999	28176	28176	28176	999999	0
28152	28152	28152	28152	28149	28149	28149	28149	28153	28153	28153	28153	28137	28137	28137	28137	28160	28160	28160	28160	28173	28173	28173	28173	999999	999999	999999	0	28157	28157	28157	28157	28159	28159	28159	28159	28163	28163	28163	28163	28152	28152	28152	28152	28144	28144	28144	28144	28175	28175	28175	28175	28176	28176	28176	28176	0
28152	28152	28144	999999	28149	28141	999999	999999	28153	28153	28145	999999	28137	28129	999999	999999	28160	28160	28152	999999	28173	28173	28173	28165	0	999999	999999	999999	28157	28157	28149	999999	28159	28159	28151	999999	28163	28163	28155	999999	28152	28152	28144	999999	28144	28136	999999	999999	28175	28175	28175	28167	28176	28176	28176	28168	0
28134	28134	28126	999999	28149	28149	28141	999999	28148	28148	28140	999999	28165	28165	28165	28157	28142	28142	28134	999999	28166	28166	28166	28158	28157	28157	28157	28149	999999	0	999999	999999	28157	28157	28157	28149	28149	28149	28141	999999	28163	28163	28163	28155	28157	28157	28157	28149	28151	28151	28151	28143	28151	28151	28151	28143	0
28134	28134	28134	28126	28149	28149	28149	28141	28148	28148	28148	28140	28165	28165	28165	999999	28142	28142	28142	28134	28166	28166	28166	999999	28157	28157	28157	999999	999999	999999	0	999999	28157	28157	28157	999999	28149	28149	28149	28141	28163	28163	28163	999999	28157	28157	28157	999999	28151	28151	28151	999999	28151	28151	28151	999999	0
28134	28134	28134	28134	28149	28149	28149	28149	28148	28148	28148	28148	28165	28165	28165	28165	28142	28142	28142	28142	28166	28166	28166	28166	28157	28157	28157	28157	999999	999999	999999	0	28157	28157	28157	28157	28149	28149	28149	28149	28163	28163	28163	28163	28157	28157	28157	28157	28151	28151	28151	28151	28151	28151	28151	28151	0
28134	28126	999999	999999	28149	28141	999999	999999	28148	28140	999999	999999	28165	28165	28157	999999	28142	28134	999999	999999	28166	28166	28158	999999	28157	28157	28149	999999	0	999999	999999	999999	28157	28157	28149	999999	28149	28141	999999	999999	28163	28163	28155	999999	28157	28157	28149	999999	28151	28151	28143	999999	28151	28151	28143	999999	0
28155	28155	28155	28147	28140	28140	28132	999999	28170	28170	28170	28162	28164	28164	28164	28156	28169	28169	28169	28161	28143	28143	28135	999999	28159	28159	28159	28151	28157	28157	28157	28149	999999	0	999999	999999	28140	28140	28132	999999	28179	28179	999999	999999	28145	28145	28137	999999	28179	28179	999999	999999	28178	28178	999999	999999	0
28155	28155	28155	999999	28140	28140	28140	28132	28170	28170	28170	999999	28164	28164	28164	999999	28169	28169	28169	999999	28143	28143	28143	28135	28159	28159	28159	999999	28157	28157	28157	999999	999999	999999	0	999999	28140	28140	28140	28132	28179	28179	28179	999999	28145	28145	28145	28137	28179	28179	28179	999999	28178	28178	28178	999999	0
28155	28155	28155	28155	28140	28140	28140	28140	28170	28170	28170	28170	28164	28164	28164	28164	28169	28169	28169	28169	28143	28143	28143	28143	28159	28159	28159	28159	28157	28157	28157	28157	999999	999999	999999	0	28140	28140	28140	28140	28179	28179	28179	28179	28145	28145	28145	28145	28179	28179	28179	28179	28178	28178	28178	28178	0
28155	28155	28147	999999	28140	28132	999999	999999	28170	28170	28162	999999	28164	28164	28156	999999	28169	28169	28161	999999	28143	28135	999999	999999	28159	28159	28151	999999	28157	28157	28149	999999	0	999999	999999	999999	28140	28132	999999	999999	28179	28179	28179	28171	28145	28137	999999	999999	28179	28179	28179	28171	28178	28178	28178	28170	0
28150	28150	28142	999999	28144	28144	28136	999999	28167	28167	28167	28159	28170	28170	28170	28162	28163	28163	28163	28155	28145	28145	28137	999999	28163	28163	28163	28155	28149	28149	28141	999999	28140	28140	28132	999999	999999	0	999999	999999	28179	28179	999999	999999	28153	28153	28153	28145	28169	28169	28169	28161	28168	28168	28168	28160	0
28150	28150	28150	28142	28144	28144	28144	28136	28167	28167	28167	999999	28170	28170	28170	999999	28163	28163	28163	999999	28145	28145	28145	28137	28163	28163	28163	999999	28149	28149	28149	28141	28140	28140	28140	28132	999999	999999	0	999999	28179	28179	28179	999999	28153	28153	28153	999999	28169	28169	28169	999999	28168	28168	28168	999999	0
28150	28150	28150	28150	28144	28144	28144	28144	28167	28167	28167	28167	28170	28170	28170	28170	28163	28163	28163	28163	28145	28145	28145	28145	28163	28163	28163	28163	28149	28149	28149	28149	28140	28140	28140	28140	999999	999999	999999	0	28179	28179	28179	28179	28153	28153	28153	28153	28169	28169	28169	28169	28168	28168	28168	28168	0
28150	28142	999999	999999	28144	28136	999999	999999	28167	28167	28159	999999	28170	28170	28162	999999	28163	28163	28155	999999	28145	28137	999999	999999	28163	28163	28155	999999	28149	28141	999999	999999	28140	28132	999999	999999	0	999999	999999	999999	28179	28179	28179	28171	28153	28153	28145	999999	28169	28169	28161	999999	28168	28168	28160	999999	0
28160	28160	28160	28152	28168	28168	28168	28160	28146	28146	28138	999999	28155	28155	28155	28147	28156	28156	28156	28148	28193	28193	999999	999999	28152	28152	28152	28144	28163	28163	28163	28155	28179	28179	999999	999999	28179	28179	999999	999999	999999	0	999999	999999	28167	28167	28167	28159	28169	28169	28169	28161	28173	28173	999999	999999	0
28160	28160	28160	999999	28168	28168	28168	999999	28146	28146	28146	28138	28155	28155	28155	999999	28156	28156	28156	999999	28193	28193	28193	999999	28152	28152	28152	999999	28163	28163	28163	999999	28179	28179	28179	999999	28179	28179	28179	999999	999999	999999	0	999999	28167	28167	28167	999999	28169	28169	28169	999999	28173	28173	28173	999999	0
28160	28160	28160	28160	28168	28168	28168	28168	28146	28146	28146	28146	28155	28155	28155	28155	28156	28156	28156	28156	28193	28193	28193	28193	28152	28152	28152	28152	28163	28163	28163	28163	28179	28179	28179	28179	28179	28179	28179	28179	999999	999999	999999	0	28167	28167	28167	28167	28169	28169	28169	28169	28173	28173	28173	28173	0
28160	28160	28152	999999	28168	28168	28160	999999	28146	28138	999999	999999	28155	28155	28147	999999	28156	28156	28148	999999	28193	999999	999999	999999	28152	28152	28144	999999	28163	28163	28155	999999	28179	28179	28179	28171	28179	28179	28179	28171	0	999999	999999	999999	28167	28167	28159	999999	28169	28169	28161	999999	28173	28173	28173	28165	0
28152	28152	28152	28144	28138	28138	28130	999999	28163	28163	28163	28155	28148	28148	28140	999999	28166	28166	28166	28158	28159	28159	28159	28151	28144	28144	28136	999999	28157	28157	28157	28149	28145	28145	28137	999999	28153	28153	28153	28145	28167	28167	28167	28159	999999	0	999999	999999	28179	28179	999999	999999	28179	28179	999999	999999	0
28152	28152	28152	999999	28138	28138	28138	28130	28163	28163	28163	999999	28148	28148	28148	28140	28166	28166	28166	999999	28159	28159	28159	999999	28144	28144	28144	28136	28157	28157	28157	999999	28145	28145	28145	28137	28153	28153	28153	999999	28167	28167	28167	999999	999999	999999	0	999999	28179	28179	28179	999999	28179	28179	28179	999999	0
28152	28152	28152	28152	28138	28138	28138	28138	28163	28163	28163	28163	28148	28148	28148	28148	28166	28166	28166	28166	28159	28159	28159	28159	28144	28144	28144	28144	28157	28157	28157	28157	28145	28145	28145	28145	28153	28153	28153	28153	28167	28167	28167	28167	999999	999999	999999	0	28179	28179	28179	28179	28179	28179	28179	28179	0
28152	28152	28144	999999	28138	28130	999999	999999	28163	28163	28155	999999	28148	28140	999999	999999	28166	28166	28158	999999	28159	28159	28151	999999	28144	28136	999999	999999	28157	28157	28149	999999	28145	28137	999999	999999	28153	28153	28145	999999	28167	28167	28159	999999	0	999999	999999	999999	28179	28179	28179	28171	28179	28179	28179	28171	0
28155	28155	28155	28147	28171	28171	999999	999999	28153	28153	28153	28145	28183	28183	999999	999999	28143	28143	28135	999999	28185	28185	999999	999999	28175	28175	999999	999999	28151	28151	28151	28143	28179	28179	999999	999999	28169	28169	28169	28161	28169	28169	28169	28161	28179	28179	999999	999999	999999	0	999999	999999	28133	28133	28125	999999	0
28155	28155	28155	999999	28171	28171	28171	999999	28153	28153	28153	999999	28183	28183	28183	999999	28143	28143	28143	28135	28185	28185	28185	999999	28175	28175	28175	999999	28151	28151	28151	999999	28179	28179	28179	999999	28169	28169	28169	999999	28169	28169	28169	999999	28179	28179	28179	999999	999999	999999	0	999999	28133	28133	28133	28125	0
28155	28155	28155	28155	28171	28171	28171	28171	28153	28153	28153	28153	28183	28183	28183	28183	28143	28143	28143	28143	28185	28185	28185	28185	28175	28175	28175	28175	28151	28151	28151	28151	28179	28179	28179	28179	28169	28169	28169	28169	28169	28169	28169	28169	28179	28179	28179	28179	999999	999999	999999	0	28133	28133	28133	28133	0
28155	28155	28147	999999	28171	28171	28171	28163	28153	28153	28145	999999	28183	28183	28183	28175	28143	28135	999999	999999	28185	28185	28185	28177	28175	28175	28175	28167	28151	28151	28143	999999	28179	28179	28179	28171	28169	28169	28161	999999	28169	28169	28161	999999	28179	28179	28179	28171	0	999999	999999	999999	28133	28125	999999	999999	0
28155	28155	28155	28147	28171	28171	999999	999999	28156	28156	28156	28148	28185	28185	999999	999999	28146	28146	28138	999999	28184	28184	999999	999999	28176	28176	999999	999999	28151	28151	28151	28143	28178	28178	999999	999999	28168	28168	28168	28160	28173	28173	999999	999999	28179	28179	999999	999999	28133	28133	28125	999999	999999	0	999999	999999	0
28155	28155	28155	999999	28171	28171	28171	999999	28156	28156	28156	999999	28185	28185	28185	999999	28146	28146	28146	28138	28184	28184	28184	999999	28176	28176	28176	999999	28151	28151	28151	999999	28178	28178	28178	999999	28168	28168	28168	999999	28173	28173	28173	999999	28179	28179	28179	999999	28133	28133	28133	28125	999999	999999	0	999999	0
28155	28155	28155	28155	28171	28171	28171	28171	28156	28156	28156	28156	28185	28185	28185	28185	28146	28146	28146	28146	28184	28184	28184	28184	28176	28176	28176	28176	28151	28151	28151	28151	28178	28178	28178	28178	28168	28168	28168	28168	28173	28173	28173	28173	28179	28179	28179	28179	28133	28133	28133	28133	999999	999999	999999	0	0
28155	28155	28147	999999	28171	28171	28171	28163	28156	28156	28148	999999	28185	28185	28185	28177	28146	28138	999999	999999	28184	28184	28184	28176	28176	28176	28176	28168	28151	28151	28143	999999	28178	28178	28178	28170	28168	28168	28160	999999	28173	28173	28173	28165	28179	28179	28179	28171	28133	28125	999999	999999	0	999999	999999	999999	0
28120	999999	999999	999999	28120	999999	999999	999999	28120	999999	999999	999999	28120	999999	999999	999999	28120	999999	999999	999999	28120	999999	999999	999999	28120	999999	999999	999999	28120	999999	999999	999999	28120	999999	999999	999999	28120	999999	999999	999999	28120	999999	999999	999999	28120	999999	999999	999999	28120	999999	999999	999999	28120	999999	999999	999999	999999
GTSP_SET_SECTION:
1 1 2 3 4 -1
2 5 6 7 8 -1
3 9 10 11 12 -1
4 13 14 15 16 -1
5 17 18 19 20 -1
6 21 22 23 24 -1
7 25 26 27 28 -1
8 29 30 31 32 -1
9 33 34 35 36 -1
10 37 38 39 40 -1
11 41 42 43 44 -1
12 45 46 47 48 -1
13 49 50 51 52 -1
14 53 54 55 56 -1
15 57 -1
EOF